100
128
41
64
37
46
46
10
36
46
35
35
27
3
8
24
23
12
16
1
61
46
1
32
19
48
48
21
62
34
51
51
40
36
12
51
32
35
25
45
43
14
12
60
63
1
22
17
16
14
13
10
11
53
17
22
15
13
13
52
25
10
16
15
46
3
17
42
34
11
36
13
26
45
20
23
10
3
2
13
17
50
10
49
50
18
19
27
32
29
35
64
21
49
27
28
53
50
23
35
29
64